
Gurobi 6.0.4 (win64) logging started 06/21/15 19:09:40

Read LP format model from file C:\MT\repository\VRPTWMS\instances\mip\fuel\N6-C_DV100-C_SV30_F6_0_No_1.lp
Reading time = 0.01 seconds
(null): 253 rows, 134 columns, 987 nonzeros
Optimize a model with 253 rows, 134 columns and 987 nonzeros
Model has 252 quadratic constraints
Coefficient statistics:
  Matrix range    [1e+00, 1e+06]
  Objective range [2e+04, 1e+07]
  Bounds range    [1e+00, 1e+06]
  RHS range       [1e+00, 1e+06]
Presolve removed 26 rows and 16 columns
Presolve time: 0.03s
Presolved: 700 rows, 368 columns, 3217 nonzeros
Variable types: 223 continuous, 145 integer (113 binary)
Found heuristic solution: objective 6.225080e+07

Root relaxation: objective 1.115883e+07, 51 iterations, 0.00 seconds

    Nodes    |    Current Node    |     Objective Bounds      |     Work
 Expl Unexpl |  Obj  Depth IntInf | Incumbent    BestBd   Gap | It/Node Time

     0     0 1.1159e+07    0   19 6.2251e+07 1.1159e+07  82.1%     -    0s
     0     0 1.1261e+07    0    9 6.2251e+07 1.1261e+07  81.9%     -    0s
     0     0 1.1317e+07    0    1 6.2251e+07 1.1317e+07  81.8%     -    0s
     0     0 1.1317e+07    0   14 6.2251e+07 1.1317e+07  81.8%     -    0s
H    0     0                    5.212620e+07 1.1317e+07  78.3%     -    0s
H    0     0                    2.196280e+07 1.1317e+07  48.5%     -    0s
     0     0 1.1325e+07    0   10 2.1963e+07 1.1325e+07  48.4%     -    0s
     0     0 1.1325e+07    0    9 2.1963e+07 1.1325e+07  48.4%     -    0s
     0     0 1.1325e+07    0    8 2.1963e+07 1.1325e+07  48.4%     -    0s
     0     2 1.1325e+07    0    8 2.1963e+07 1.1325e+07  48.4%     -    0s
*  575   105              14    2.174610e+07 1.1805e+07  45.7%  15.0    0s
*  714   107              20    2.173700e+07 1.1923e+07  45.1%  14.5    0s

Cutting planes:
  Learned: 1
  Cover: 59
  Implied bound: 28
  Clique: 3
  MIR: 10
  GUB cover: 1
  Zero half: 1
  Mod-K: 1

Explored 1341 nodes (17882 simplex iterations) in 0.47 seconds
Thread count was 2 (of 4 available processors)

Optimal solution found (tolerance 1.00e-04)
Best objective 2.173700000000e+07, best bound 2.173700000000e+07, gap 0.0%
k_c1	70000.0
k_c2	1000000.0
k_c3	960000.0
k_c4	140000.0
k_c5	180000.0
k_c6	270000.0
k_dN	-0.0
o_1	-0.0
o_2	0.9999999999999997
o_3	-0.0
o_4	-0.0
o_5	0.0
o_6	-0.0
p_1	-0.0
p_2	1.0
p_3	0.0
p_4	1.0
p_5	0.0
p_6	0.0
phi_c1	13775.0
phi_c2	51022.0
phi_c3	47717.0
phi_c4	-0.0
phi_c5	1338.0000000000036
phi_c6	29607.0
phi_dN	-0.0
pi_c1	-0.0
pi_c2	68978.0
pi_c3	-0.0
pi_c4	60000.0
pi_c5	-0.0
pi_c6	-0.0
pi_dN	-0.0
tauD_c1	787175.0
tauD_c2	33550.0
tauD_c3	219450.0
tauD_c4	600000.0
tauD_c5	501750.0
tauD_c6	347125.0
tauD_d0	-0.0
tauD_dN	1000000.0
tauS_c1	-0.0
tauS_c2	33550.0
tauS_c3	794175.0
tauS_c4	162849.99999999974
tauS_c5	884200.0
tauS_c6	818875.0
tauS_d0	-0.0
tauS_dN	765999.9999999999
x_c1_dN	1.0
x_c2_c3	1.0
x_c3_c6	1.0
x_c4_c1	1.0
x_c5_c4	1.0
x_c6_c5	1.0
x_d0_c2	1.0
z_c2_c4	1.0
z_c4_dN	1.0
z_d0_c2	1.0
